c cksystemsgroup.github.io/unicorn
c CNF contains a total of 126 clauses.
c CNF contains a total of 63 variables.
c CNF clauses cover 1 bad states.
c Variable name mapping (17 names):
c   1: input[bit=0]
c   2: input[bit=0]
c   8: input[bit=1]
c   9: input[bit=1]
c   16: input[bit=2]
c   17: input[bit=2]
c   24: input[bit=3]
c   25: input[bit=3]
c   32: input[bit=4]
c   33: input[bit=4]
c   40: input[bit=5]
c   41: input[bit=5]
c   48: input[bit=6]
c   49: input[bit=6]
c   56: input[bit=7]
c   57: input[bit=7]
c   63: ?
p cnf 63 126
-1 -2 -3 0
1 3 0
2 3 0
-1 -4 0
1 4 0
-2 -5 0
2 5 0
-4 -5 -6 0
4 6 0
5 6 0
-3 -6 -7 0
3 7 0
6 7 0
-8 -9 -10 0
8 10 0
9 10 0
-8 -11 0
8 11 0
-9 -12 0
9 12 0
-11 -12 -13 0
11 13 0
12 13 0
-10 -13 -14 0
10 14 0
13 14 0
-7 -14 15 0
7 -15 0
14 -15 0
-16 -17 -18 0
16 18 0
17 18 0
-16 -19 0
16 19 0
-17 -20 0
17 20 0
-19 -20 -21 0
19 21 0
20 21 0
-18 -21 -22 0
18 22 0
21 22 0
-15 -22 23 0
15 -23 0
22 -23 0
-24 -25 -26 0
24 26 0
25 26 0
-24 -27 0
24 27 0
-25 -28 0
25 28 0
-27 -28 -29 0
27 29 0
28 29 0
-26 -29 -30 0
26 30 0
29 30 0
-23 -30 31 0
23 -31 0
30 -31 0
-32 -33 -34 0
32 34 0
33 34 0
-32 -35 0
32 35 0
-33 -36 0
33 36 0
-35 -36 -37 0
35 37 0
36 37 0
-34 -37 -38 0
34 38 0
37 38 0
-31 -38 39 0
31 -39 0
38 -39 0
-40 -41 -42 0
40 42 0
41 42 0
-40 -43 0
40 43 0
-41 -44 0
41 44 0
-43 -44 -45 0
43 45 0
44 45 0
-42 -45 -46 0
42 46 0
45 46 0
-39 -46 47 0
39 -47 0
46 -47 0
-48 -49 -50 0
48 50 0
49 50 0
-48 -51 0
48 51 0
-49 -52 0
49 52 0
-51 -52 -53 0
51 53 0
52 53 0
-50 -53 -54 0
50 54 0
53 54 0
-47 -54 55 0
47 -55 0
54 -55 0
-56 -57 -58 0
56 58 0
57 58 0
-56 -59 0
56 59 0
-57 -60 0
57 60 0
-59 -60 -61 0
59 61 0
60 61 0
-58 -61 -62 0
58 62 0
61 62 0
-55 -62 63 0
55 -63 0
62 -63 0
63 0
